25 2
25 1000
10
7
13
19
26
3
5
9
16
16
12
19
23
20
8
19
2
12
17
9
11
18
29
3
6
35 35 0 1000 0 0
41 49 190 974 10 2
35 17 18 792 10 1
55 45 289 822 10 3
55 20 679 800 10 3
15 30 20 906 10 2
25 30 355 574 10 2
20 50 72 669 10 3
10 43 393 492 10 1
55 60 394 503 10 3
30 60 517 692 10 2
20 65 206 325 10 1
50 35 15 725 10 2
30 25 694 823 10 1
15 10 32 694 10 3
30 5 176 299 10 2
10 20 102 543 10 2
5 30 673 930 10 1
20 40 229 582 10 3
15 60 95 552 10 1
45 65 418 829 10 1
45 20 18 727 10 3
45 10 349 554 10 1
55 5 206 325 10 3
65 35 435 960 10 1
65 20 826 956 10 2
8 6 0 1000 5 4
64 9 0 1000 5 4
0 1
0 0
0 1
0 1
1 0
1 0
1 0
0 0
0 1
1 0
0 0
0 1
0 0
1 0
1 0
1 0
0 0
1 0
0 0
0 0
0 1
0 0
0 1
0 0
0 1
